(set-logic QF_S)
(declare-fun var0 () String)
(declare-fun var1 () String)
(declare-fun var2 () String)
(declare-fun var3 () String)
(declare-fun var4 () Int)
(declare-fun var5 () Int)
(declare-fun var6 () Int)
(assert (> (str.len var0) (str.to.int "XJc0B?v!P")))
(assert (str.contains var1 var2))
(assert (str.contains (str.substr var3 var4 2) (str.replace var1 var0 var1)))
(assert (>= var5 var6))
(check-sat)